<number of tasks>
250

<cycle time>
1000

<order strength>
0.595


<task times>
1 767
2 509
3 676
4 634
5 710
6 607
7 379
8 508
9 535
10 234
11 364
12 480
13 471
14 520
15 409
16 565
17 558
18 577
19 469
20 621
21 552
22 564
23 495
24 384
25 514
26 583
27 272
28 577
29 458
30 726
31 494
32 459
33 459
34 546
35 614
36 441
37 472
38 493
39 454
40 482
41 623
42 474
43 453
44 653
45 455
46 593
47 304
48 475
49 476
50 374
51 450
52 445
53 602
54 247
55 283
56 398
57 569
58 700
59 585
60 451
61 452
62 572
63 485
64 712
65 270
66 240
67 633
68 337
69 366
70 194
71 277
72 450
73 597
74 605
75 392
76 767
77 690
78 413
79 292
80 496
81 351
82 519
83 477
84 617
85 445
86 357
87 507
88 352
89 545
90 474
91 311
92 556
93 657
94 270
95 703
96 291
97 640
98 449
99 665
100 569
101 574
102 671
103 531
104 432
105 354
106 530
107 381
108 606
109 326
110 530
111 588
112 558
113 410
114 408
115 398
116 393
117 542
118 447
119 465
120 376
121 628
122 449
123 418
124 621
125 654
126 555
127 499
128 362
129 603
130 382
131 477
132 564
133 332
134 330
135 582
136 709
137 467
138 327
139 286
140 517
141 546
142 489
143 509
144 327
145 685
146 334
147 625
148 540
149 532
150 466
151 538
152 625
153 546
154 581
155 629
156 486
157 587
158 305
159 586
160 434
161 541
162 284
163 462
164 567
165 557
166 474
167 535
168 758
169 380
170 523
171 564
172 390
173 548
174 784
175 600
176 574
177 606
178 583
179 644
180 354
181 539
182 671
183 365
184 406
185 524
186 747
187 294
188 745
189 493
190 448
191 443
192 428
193 449
194 292
195 418
196 459
197 455
198 572
199 546
200 471
201 639
202 432
203 475
204 482
205 243
206 234
207 478
208 206
209 593
210 496
211 440
212 610
213 606
214 597
215 216
216 665
217 536
218 341
219 404
220 395
221 418
222 371
223 600
224 527
225 541
226 297
227 375
228 563
229 689
230 410
231 259
232 604
233 534
234 662
235 463
236 433
237 541
238 660
239 593
240 495
241 645
242 695
243 501
244 275
245 535
246 548
247 349
248 406
249 94
250 346

<precedence relations>
1,10
2,11
3,13
4,14
5,9
5,12
5,26
6,18
7,15
7,17
8,16
9,20
10,19
11,21
12,23
13,22
14,24
16,25
17,26
17,27
18,27
18,28
18,45
18,51
19,30
20,31
21,32
22,34
23,35
24,29
25,33
25,37
25,38
25,47
26,36
26,38
26,45
26,47
26,58
27,218
27,229
27,243
28,103
28,186
29,39
30,45
31,46
32,47
33,40
34,42
35,41
36,43
37,44
38,48
38,49
38,50
38,51
39,52
40,54
41,53
42,57
43,56
44,58
45,57
46,60
47,57
48,55
48,57
49,57
49,60
51,59
52,64
53,64
54,61
55,62
56,63
57,64
57,65
58,64
58,66
58,73
59,64
59,65
59,66
60,64
60,67
61,69
62,70
63,70
64,70
64,71
64,72
64,74
64,79
65,68
65,71
66,70
66,165
67,73
68,75
69,76
70,129
70,204
71,115
72,84
72,141
72,159
73,77
73,78
73,79
74,77
74,78
74,80
75,81
76,84
77,142
78,81
78,82
78,83
78,85
79,86
79,87
79,141
79,148
80,81
80,82
81,89
81,160
82,88
82,91
82,92
83,90
83,91
83,92
83,94
84,140
84,165
85,91
85,159
86,93
86,186
87,117
87,132
87,168
88,96
89,97
90,98
91,95
91,100
91,167
92,99
92,100
92,101
92,102
92,107
93,139
93,182
94,103
95,104
96,105
97,107
98,108
99,106
100,109
100,173
101,109
101,110
102,111
102,137
103,107
103,133
104,112
105,113
106,114
107,117
108,115
108,116
109,181
110,115
110,116
110,118
111,131
111,143
112,119
113,121
114,120
115,120
115,122
115,128
116,120
116,122
116,123
116,124
117,123
117,125
118,213
119,127
120,126
120,129
120,132
120,201
121,133
121,167
122,133
123,128
123,130
124,131
125,127
125,195
126,134
127,135
127,203
128,136
128,158
128,195
129,137
129,139
131,140
131,142
132,138
132,143
132,159
132,207
132,208
133,141
133,151
133,182
134,145
135,146
136,147
137,144
137,149
137,222
137,230
138,240
139,221
140,148
142,150
142,151
143,230
144,152
145,153
146,154
147,155
148,156
148,157
148,160
148,166
149,159
149,221
150,158
150,166
151,189
152,161
153,162
154,165
155,165
156,163
157,164
159,166
159,167
159,187
159,200
159,209
160,167
160,168
161,169
162,170
163,171
164,172
165,181
165,187
166,188
166,229
166,246
167,174
168,173
169,178
170,179
171,180
172,175
172,181
172,182
173,176
174,177
174,186
175,183
176,184
177,185
178,186
179,186
180,187
181,188
181,189
182,203
183,191
184,194
185,195
186,190
186,192
188,193
188,206
189,194
190,196
191,197
192,198
193,199
194,200
194,201
194,202
194,204
195,203
196,205
197,206
198,205
199,205
200,243
201,208
202,230
202,240
204,207
204,209
204,241
204,249
205,211
205,212
205,232
205,241
205,249
207,210
207,217
208,211
208,213
210,214
211,218
211,247
212,215
213,216
213,217
214,219
215,220
216,222
216,223
216,243
217,221
217,224
218,233
219,225
220,227
221,226
221,234
222,228
222,229
222,231
222,232
222,233
223,230
223,246
223,247
223,250
225,235
226,237
227,236
228,238
229,239
229,241
229,242
232,240
234,243
235,246
236,244
237,246
238,246
239,245
241,248
241,250
242,249
242,250
243,247

<end>
